n_res = 4;
rcap = [14, 15, 58, 51];
rtype = [1, 1, 2, 2];
n_tasks = 16;
modes = [ {1, 2, 3, 4, 5}, {6, 7, 8, 9, 10}, {11, 12, 13, 14, 15}, {16, 17, 18, 19, 20}, {21, 22, 23, 24, 25}, {26, 27, 28, 29, 30}, {31, 32, 33, 34, 35}, {36, 37, 38, 39, 40}, {41, 42, 43, 44, 45}, {46, 47, 48, 49, 50}, {51, 52, 53, 54, 55}, {56, 57, 58, 59, 60}, {61, 62, 63, 64, 65}, {66, 67, 68, 69, 70}, {71, 72, 73, 74, 75}, {76, 77, 78, 79, 80} ];
succ = [ {4, 7, 15}, {5, 6, 8}, {4, 8}, {11, 12, 16}, {7, 15}, {9, 12, 15}, {9, 12, 16}, {9, 16}, {10}, {11, 13}, {14}, {14}, {14}, {}, {}, {} ];
n_opt = 80;
dur = [2, 3, 3, 7, 9, 5, 6, 6, 8, 9, 3, 5, 6, 8, 9, 6, 7, 9, 9, 9, 2, 2, 2, 3, 8, 1, 3, 6, 8, 10, 2, 2, 7, 9, 10, 6, 8, 9, 9, 10, 1, 5, 8, 9, 10, 7, 7, 8, 10, 10, 1, 5, 6, 7, 10, 3, 4, 8, 9, 10, 2, 3, 5, 9, 9, 4, 4, 6, 8, 10, 1, 3, 4, 7, 10, 1, 1, 3, 4, 6];
rreq = [| 10,  8,  8,  7,  7,  9,  8,  9,  8,  7,  9,  9,  9,  9,  9,  5,  4,  3,  4,  4,  6,  7,  6,  5,  2,  7,  5,  5,  4,  3,  8,  7,  7,  6,  2,  2,  2,  1,  1,  1,  8,  7,  5,  4,  4,  4,  3,  3,  3,  2,  9,  7,  6,  3,  2,  5,  5,  4,  3,  2,  9,  8,  6,  4,  2,  5,  5,  4,  4,  3,  9,  8,  8,  8,  7,  6,  5,  5,  4,  3
        |  7,  7,  7,  6,  6,  1,  1,  1,  1,  1,  7,  6,  6,  5,  5,  4,  3,  2,  1,  2,  9,  9,  9,  9,  9,  7,  6,  5,  5,  4,  3,  4,  3,  3,  2,  6,  5,  5,  5,  3, 10, 10, 10, 10, 10,  6,  7,  5,  4,  4,  9,  9,  8,  8,  7,  9,  8,  7,  7,  6, 10,  9,  8,  6,  5,  6,  6,  6,  5,  5,  7,  6,  5,  2,  1, 10, 10, 10, 10, 10
        |  9,  7,  0,  0,  6, 10,  0,  9,  7,  4,  7,  7,  6,  4,  3,  9,  7,  4,  4,  0,  0,  0,  8,  0,  4,  0,  0,  0, 10,  0,  0,  0,  0,  0,  1,  8,  0,  8,  0,  7,  0,  0,  5,  0,  0,  0,  7,  0,  0,  4,  0,  0,  0,  3,  0,  0,  0,  0,  4,  0,  7,  0,  5,  0,  3,  0,  6,  0,  5,  0,  0,  9,  8,  7,  0,  9,  0,  0,  9,  0
        |  0,  0,  7,  5,  0,  0,  5,  0,  0,  0,  0,  0,  0,  0,  0,  0,  0,  0,  0,  6,  5,  4,  0,  5,  0,  7,  7,  7,  0,  6,  6,  7,  5,  2,  0,  0,  8,  0,  8,  0,  8,  8,  0,  6,  3,  6,  0,  6,  5,  0,  4,  4,  3,  0,  2, 10, 10,  9,  0,  9,  0,  8,  0,  8,  0, 10,  0, 10,  0, 10,  3,  0,  0,  0,  2,  0,  8,  5,  0,  1 |];
